70 5523368
42 45 12 41 56 54 64 17 50 40 4 9 3 58 23 33 67 26 49 7 2 29 37 65 28 52 69 68 53 14 30 55 24 11 13 21 51 60 6 36 59 34 70 8 63 38 43 57 48 27 1 32 39 66 19 22 15 46 16 35 44 31 20 18 62 25 47 61 10 5 
